c Result of efficient AIG-to-CNF conversion using package CNF
p cnf 372 1289
2 -3 -74 0
2 -3 4 -52 0
-2 3 0
-2 -4 74 0
-2 52 74 0
3 -340 -341 -342 -343 0
-3 343 0
-3 340 0
-3 342 0
-3 341 0
4 367 -28 -42 0
4 -367 -5 -28 0
-4 28 0
-4 -367 5 0
-4 367 42 0
5 -368 -6 0
5 368 -17 0
-5 368 17 0
-5 -368 6 0
6 -369 -7 0
6 369 -12 0
-6 369 12 0
-6 -369 7 0
7 -370 -8 0
7 370 -10 0
-7 370 10 0
-7 -370 8 0
8 -371 -9 0
8 -328 -360 371 0
-8 328 371 0
-8 -371 9 0
-8 360 371 0
9 -329 -361 0
-9 329 0
-9 361 0
10 371 -11 0
10 -327 -359 -371 0
-10 371 11 0
-10 359 -371 0
-10 327 -371 0
11 -326 -358 0
-11 326 0
-11 358 0
12 -370 -13 0
12 370 -15 0
-12 370 15 0
-12 -370 13 0
13 -371 -14 0
13 -324 -356 371 0
-13 324 371 0
-13 -371 14 0
-13 356 371 0
14 -325 -357 0
-14 325 0
-14 357 0
15 -371 -16 0
15 -322 -354 371 0
-15 322 371 0
-15 -371 16 0
-15 354 371 0
16 -323 -355 0
-16 323 0
-16 355 0
17 -369 -18 0
17 369 -23 0
-17 369 23 0
-17 -369 18 0
18 -370 -19 0
18 370 -21 0
-18 370 21 0
-18 -370 19 0
19 -371 -20 0
19 -320 -352 371 0
-19 320 371 0
-19 -371 20 0
-19 352 371 0
20 -321 -353 0
-20 321 0
-20 353 0
21 371 -22 0
21 -319 -351 -371 0
-21 371 22 0
-21 351 -371 0
-21 319 -371 0
22 -318 -350 0
-22 318 0
-22 350 0
23 -370 -24 0
23 370 -26 0
-23 370 26 0
-23 -370 24 0
24 -371 -25 0
24 -316 -348 371 0
-24 316 371 0
-24 -371 25 0
-24 348 371 0
25 -317 -349 0
-25 317 0
-25 349 0
26 -371 -27 0
26 -314 -346 371 0
-26 314 371 0
-26 -371 27 0
-26 346 371 0
27 -315 -347 0
-27 315 0
-27 347 0
28 -29 -32 -40 0
-28 29 0
-28 32 0
-28 40 0
29 -30 -31 0
-29 30 0
-29 31 0
30 -354 -355 0
-30 354 0
-30 355 0
31 -344 -345 -346 0
-31 344 0
-31 345 0
-31 346 0
32 -33 -34 0
-32 33 0
-32 34 0
33 -352 -353 0
-33 352 0
-33 353 0
34 -35 -38 0
-34 35 0
-34 38 0
35 -36 -37 0
-35 36 0
-35 37 0
36 -360 -361 0
-36 360 0
-36 361 0
37 -362 -363 -364 -365 0
-37 365 0
-37 362 0
-37 364 0
-37 363 0
38 -366 -39 0
-38 366 0
-38 39 0
39 -356 -357 -358 -359 0
-39 359 0
-39 356 0
-39 358 0
-39 357 0
40 -347 -348 -41 0
-40 347 0
-40 348 0
-40 41 0
41 -349 -350 -351 0
-41 349 0
-41 350 0
-41 351 0
42 -368 -43 0
-42 368 0
-42 43 0
43 -369 -44 0
43 369 -49 0
-43 369 49 0
-43 -369 44 0
44 -370 -45 0
44 370 -47 0
-44 370 47 0
-44 -370 45 0
45 -371 -46 0
45 -312 -344 371 0
-45 312 371 0
-45 -371 46 0
-45 344 371 0
46 -313 -345 0
-46 313 0
-46 345 0
47 -371 -48 0
47 -310 -342 371 0
-47 310 371 0
-47 -371 48 0
-47 342 371 0
48 -311 -343 0
-48 311 0
-48 343 0
49 -370 -50 0
-49 370 0
-49 50 0
50 -371 -51 0
50 -308 -340 371 0
-50 308 371 0
-50 -371 51 0
-50 340 371 0
51 -309 -341 0
-51 309 0
-51 341 0
52 367 -28 -68 0
52 -367 -28 -53 0
-52 28 0
-52 -367 53 0
-52 367 68 0
-53 -368 61 0
-53 368 54 0
53 368 -54 0
53 -368 -61 0
54 -369 -55 0
54 369 -58 0
-54 369 58 0
-54 -369 55 0
55 -370 -56 0
55 370 -57 0
-55 370 57 0
-55 -370 56 0
56 -321 -371 0
56 -320 371 0
-56 320 371 0
-56 321 -371 0
57 -319 -371 0
57 -318 371 0
-57 318 371 0
-57 319 -371 0
58 -370 -59 0
58 370 -60 0
-58 370 60 0
-58 -370 59 0
59 -317 -371 0
59 -316 371 0
-59 316 371 0
-59 317 -371 0
60 -315 -371 0
60 -314 371 0
-60 314 371 0
-60 315 -371 0
61 -369 -62 0
61 369 -65 0
-61 369 65 0
-61 -369 62 0
62 -370 -63 0
62 370 -64 0
-62 370 64 0
-62 -370 63 0
63 -329 -371 0
63 -328 371 0
-63 328 371 0
-63 329 -371 0
64 -327 -371 0
64 -326 371 0
-64 326 371 0
-64 327 -371 0
65 -370 -66 0
65 370 -67 0
-65 370 67 0
-65 -370 66 0
66 -325 -371 0
66 -324 371 0
-66 324 371 0
-66 325 -371 0
67 -323 -371 0
67 -322 371 0
-67 322 371 0
-67 323 -371 0
68 -368 -69 0
-68 368 0
-68 69 0
69 -369 -70 0
69 369 -73 0
-69 369 73 0
-69 -369 70 0
70 -370 -71 0
70 370 -72 0
-70 370 72 0
-70 -370 71 0
71 -313 -371 0
71 -312 371 0
-71 312 371 0
-71 313 -371 0
72 -311 -371 0
72 -310 371 0
-72 310 371 0
-72 311 -371 0
73 -308 -370 371 0
73 -309 -370 -371 0
-73 370 0
-73 309 -371 0
-73 308 371 0
-74 28 130 0
-74 -75 130 0
-74 107 130 0
74 -130 0
74 -28 75 -107 0
75 -351 -32 -76 -77 0
-75 77 0
-75 351 0
-75 76 0
-75 32 0
76 -347 -348 -349 -350 0
-76 350 0
-76 347 0
-76 349 0
-76 348 0
77 367 -29 -97 0
77 -367 -29 -78 0
-77 29 0
-77 -367 78 0
-77 367 97 0
-78 -368 88 0
-78 368 79 0
78 368 -79 0
78 -368 -88 0
79 -369 -80 0
79 369 -84 0
-79 369 84 0
-79 -369 80 0
80 -370 -81 0
80 370 -82 0
-80 370 82 0
-80 -370 81 0
81 371 -20 0
81 -322 -354 -371 0
-81 371 20 0
-81 354 -371 0
-81 322 -371 0
82 -371 -83 0
82 -319 -351 371 0
-82 319 371 0
-82 -371 83 0
-82 351 371 0
83 -320 -352 0
-83 320 0
-83 352 0
84 -370 -85 0
84 370 -86 0
-84 370 86 0
-84 -370 85 0
85 -371 -22 0
85 -317 -349 371 0
-85 317 371 0
-85 -371 22 0
-85 349 371 0
86 -371 -87 0
86 -315 -347 371 0
-86 315 371 0
-86 -371 87 0
-86 347 371 0
87 -316 -348 0
-87 316 0
-87 348 0
88 -369 -89 0
88 369 -93 0
-88 369 93 0
-88 -369 89 0
89 -370 -90 0
89 370 -91 0
-89 370 91 0
-89 -370 90 0
90 371 -9 0
90 -330 -362 -371 0
-90 371 9 0
-90 362 -371 0
-90 330 -371 0
91 -371 -92 0
91 -327 -359 371 0
-91 327 371 0
-91 -371 92 0
-91 359 371 0
92 -328 -360 0
-92 328 0
-92 360 0
93 -370 -94 0
93 370 -95 0
-93 370 95 0
-93 -370 94 0
94 -371 -11 0
94 -325 -357 371 0
-94 325 371 0
-94 -371 11 0
-94 357 371 0
95 -371 -96 0
95 -323 -355 371 0
-95 323 371 0
-95 -371 96 0
-95 355 371 0
96 -324 -356 0
-96 324 0
-96 356 0
97 -368 -98 0
-97 368 0
-97 98 0
98 -369 -99 0
98 369 -103 0
-98 369 103 0
-98 -369 99 0
99 -370 -100 0
99 370 -101 0
-99 370 101 0
-99 -370 100 0
100 371 -46 0
100 -314 -346 -371 0
-100 371 46 0
-100 346 -371 0
-100 314 -371 0
101 -371 -102 0
101 -311 -343 371 0
-101 311 371 0
-101 -371 102 0
-101 343 371 0
102 -312 -344 0
-102 312 0
-102 344 0
103 -370 -104 0
103 370 -106 0
-103 370 106 0
-103 -370 104 0
104 -371 -105 0
104 -309 -341 371 0
-104 309 371 0
-104 -371 105 0
-104 341 371 0
105 -310 -342 0
-105 310 0
-105 342 0
106 -308 -340 -371 0
-106 308 0
-106 340 0
-106 371 0
-107 -367 108 0
-107 367 123 0
107 -367 -108 0
107 367 -123 0
-108 -368 116 0
-108 368 109 0
108 368 -109 0
108 -368 -116 0
109 -369 -110 0
109 369 -113 0
-109 369 113 0
-109 -369 110 0
110 -370 -111 0
110 370 -112 0
-110 370 112 0
-110 -370 111 0
111 -322 -371 0
111 -321 371 0
-111 321 371 0
-111 322 -371 0
112 -320 -371 0
112 -319 371 0
-112 319 371 0
-112 320 -371 0
113 -370 -114 0
113 370 -115 0
-113 370 115 0
-113 -370 114 0
114 -318 -371 0
114 -317 371 0
-114 317 371 0
-114 318 -371 0
115 -316 -371 0
115 -315 371 0
-115 315 371 0
-115 316 -371 0
116 -369 -117 0
116 369 -120 0
-116 369 120 0
-116 -369 117 0
117 -370 -118 0
117 370 -119 0
-117 370 119 0
-117 -370 118 0
118 -330 -371 0
118 -329 371 0
-118 329 371 0
-118 330 -371 0
119 -328 -371 0
119 -327 371 0
-119 327 371 0
-119 328 -371 0
120 -370 -121 0
120 370 -122 0
-120 370 122 0
-120 -370 121 0
121 -326 -371 0
121 -325 371 0
-121 325 371 0
-121 326 -371 0
122 -324 -371 0
122 -323 371 0
-122 323 371 0
-122 324 -371 0
123 -368 -124 0
-123 368 0
-123 124 0
124 -369 -125 0
124 369 -128 0
-124 369 128 0
-124 -369 125 0
125 -370 -126 0
125 370 -127 0
-125 370 127 0
-125 -370 126 0
126 -314 -371 0
126 -313 371 0
-126 313 371 0
-126 314 -371 0
127 -312 -371 0
127 -311 371 0
-127 311 371 0
-127 312 -371 0
128 -370 -129 0
128 -308 370 -371 0
-128 370 371 0
-128 -370 129 0
-128 308 370 0
129 -310 -371 0
129 -309 371 0
-129 309 371 0
-129 310 -371 0
-130 28 131 165 0
-130 131 145 165 0
130 -165 0
130 -131 0
130 -28 -145 0
-131 68 140 0
-131 132 140 0
-131 -42 140 0
131 -140 0
131 42 -68 -132 0
132 -33 -41 -133 -135 0
-132 135 0
-132 33 0
-132 133 0
-132 41 0
133 -346 -347 -348 -134 0
-133 134 0
-133 346 0
-133 348 0
-133 347 0
134 -344 -345 0
-134 344 0
-134 345 0
135 -136 -138 0
-135 136 0
-135 138 0
136 -30 -137 0
-136 30 0
-136 137 0
137 -36 -39 0
-137 36 0
-137 39 0
138 -362 -363 -367 -139 0
-138 139 0
-138 362 0
-138 367 0
-138 363 0
139 -364 -365 -366 0
-139 364 0
-139 365 0
-139 366 0
-140 132 0
-140 -97 141 0
-140 123 141 0
140 -132 -141 0
140 97 -123 -132 0
141 -368 -142 0
-141 368 0
-141 142 0
142 143 -144 0
-142 -143 0
-142 144 0
143 -369 -103 0
-143 369 0
-143 103 0
144 -369 -128 0
-144 369 0
-144 128 0
-145 368 160 0
-145 -368 146 0
-145 367 368 0
145 -368 -146 0
145 -367 368 -160 0
-146 -367 147 0
-146 367 153 0
146 -367 -147 0
146 367 -153 0
147 369 -148 0
147 -369 -150 0
-147 -369 150 0
-147 369 148 0
148 -370 -149 0
148 370 13 -66 0
-148 370 -13 0
-148 -370 149 0
-148 370 66 0
149 -326 371 10 0
149 -327 -371 10 0
-149 -10 0
-149 326 371 0
-149 327 -371 0
-150 370 -8 0
-150 -370 151 0
-150 370 63 0
150 -370 -151 0
150 370 8 -63 0
151 -371 -152 0
151 -330 362 371 0
-151 -362 371 0
-151 -371 152 0
-151 330 371 0
152 -331 363 0
-152 331 0
-152 -363 0
-153 369 156 0
-153 -369 154 0
153 -369 -154 0
153 369 -156 0
154 -370 -155 0
154 370 45 -71 0
-154 370 -45 0
-154 -370 155 0
-154 370 71 0
155 -314 371 26 0
155 -315 -371 26 0
-155 -26 0
-155 314 371 0
-155 315 -371 0
156 157 -158 0
-156 -157 0
-156 158 0
157 -370 -47 0
157 370 -50 0
-157 370 50 0
-157 -370 47 0
158 -370 -72 0
158 370 -159 0
-158 370 159 0
-158 -370 72 0
159 -309 -371 0
159 -308 371 0
-159 308 371 0
-159 309 -371 0
160 369 -161 0
160 -369 -163 0
-160 -369 163 0
-160 369 161 0
161 -370 -162 0
161 370 24 -59 0
-161 370 -24 0
-161 -370 162 0
-161 370 59 0
162 -318 371 21 0
162 -319 -371 21 0
-162 -21 0
-162 318 371 0
-162 319 -371 0
163 -370 -164 0
163 370 19 -56 0
-163 370 -19 0
-163 -370 164 0
-163 370 56 0
164 -322 371 15 0
164 -323 -371 15 0
-164 -15 0
-164 322 371 0
-164 323 -371 0
-165 166 178 201 217 0
165 -178 0
165 -201 0
165 -166 0
165 -217 0
166 -36 -167 -168 -171 0
-166 171 0
-166 36 0
-166 168 0
-166 167 0
167 -362 -363 -367 0
-167 362 0
-167 363 0
-167 367 0
168 -351 -169 -170 0
-168 351 0
-168 169 0
-168 170 0
169 -349 -350 -133 0
-169 349 0
-169 350 0
-169 133 0
170 -30 -33 0
-170 30 0
-170 33 0
171 -39 -139 -172 0
-171 39 0
-171 139 0
-171 172 0
-172 -368 173 0
-172 368 177 0
-172 368 -176 0
172 -368 -173 0
172 368 176 -177 0
173 174 -175 0
-173 -174 0
-173 175 0
174 -369 -23 0
174 369 -44 0
-174 369 44 0
-174 -369 23 0
175 -369 -58 0
175 369 -70 0
-175 369 70 0
-175 -369 58 0
176 -369 -49 0
-176 369 0
-176 49 0
177 -369 -73 0
-177 369 0
-177 73 0
-178 132 182 0
-178 179 182 192 0
178 -182 0
178 -132 -179 0
178 -132 -192 0
-179 -368 -180 0
-179 368 142 0
-179 -368 181 0
179 368 -142 0
179 -368 180 -181 0
180 -369 -84 0
180 369 -99 0
-180 369 99 0
-180 -369 84 0
181 -369 -113 0
181 369 -125 0
-181 369 125 0
-181 -369 113 0
182 28 -187 -190 0
182 183 -187 -190 0
-182 190 0
-182 187 0
-182 -28 -183 0
183 -185 -186 0
183 184 -186 0
-183 186 0
-183 -184 185 0
184 -367 -368 0
-184 367 0
-184 368 0
185 369 -80 0
185 -369 -93 0
-185 -369 93 0
-185 369 80 0
186 -368 -143 0
186 -367 -180 0
186 -367 -368 0
-186 368 180 0
-186 367 143 0
-186 367 368 0
187 -31 184 -188 0
187 -31 -188 -189 0
-187 31 0
-187 188 0
-187 -184 189 0
188 -368 -144 0
188 -367 -181 0
188 -367 -368 0
-188 368 181 0
-188 367 144 0
-188 367 368 0
189 369 -110 0
189 -369 -120 0
-189 -369 120 0
-189 369 110 0
190 -351 -352 -76 -191 0
-190 191 0
-190 351 0
-190 76 0
-190 352 0
191 -353 -30 -35 -38 0
-191 38 0
-191 353 0
-191 35 0
-191 30 0
192 -368 -153 0
192 -368 193 -198 0
-192 368 0
-192 153 -193 0
-192 153 198 0
193 -132 -194 0
-193 132 0
-193 194 0
194 -368 -195 0
-194 368 0
-194 195 0
195 -369 -196 0
195 369 -197 0
-195 369 197 0
-195 -369 196 0
196 -370 -101 0
196 370 -104 0
-196 370 104 0
-196 -370 101 0
197 -308 -340 -370 -371 0
-197 371 0
-197 308 0
-197 370 0
-197 340 0
198 -369 -199 0
198 369 -200 0
-198 369 200 0
-198 -369 199 0
199 -370 -127 0
199 370 -129 0
-199 370 129 0
-199 -370 127 0
200 -308 -370 -371 0
-200 308 0
-200 370 0
-200 371 0
201 -132 -202 0
201 -132 -214 0
-201 132 0
-201 202 214 0
202 -203 205 0
202 -204 205 0
-202 -205 0
-202 203 204 0
-203 368 153 -195 0
-203 368 153 198 0
203 -368 0
203 -153 0
203 195 -198 0
-204 -43 124 0
-204 69 -98 0
-204 69 124 0
-204 -43 -98 0
204 43 -69 0
204 98 -124 0
205 109 160 -206 0
205 -79 160 -206 0
-205 206 0
-205 -160 0
-205 79 -109 0
206 -368 -17 207 0
206 -368 54 207 0
-206 368 0
-206 -207 0
-206 17 -54 0
207 208 -211 0
-207 -208 0
-207 211 0
208 -369 -209 0
208 369 -210 0
-208 369 210 0
-208 -369 209 0
209 -370 -82 0
209 370 -85 0
-209 370 85 0
-209 -370 82 0
210 -370 -86 0
210 370 -100 0
-210 370 100 0
-210 -370 86 0
211 -369 -212 0
211 369 -213 0
-211 369 213 0
-211 -369 212 0
212 -370 -112 0
212 370 -114 0
-212 370 114 0
-212 -370 112 0
213 -370 -115 0
213 370 -126 0
-213 370 126 0
-213 -370 115 0
-214 -368 216 0
-214 368 215 0
214 368 -215 0
214 -368 -216 0
215 -369 -156 0
-215 369 0
-215 156 0
216 369 -154 0
216 -369 -161 0
-216 -369 161 0
-216 369 154 0
-217 218 246 254 259 0
217 -259 0
217 -254 0
217 -218 0
217 -246 0
-218 219 -230 234 0
-218 219 233 234 0
218 -219 0
218 -234 0
218 230 -233 0
219 -28 224 -225 0
219 -28 -220 -225 0
-219 28 0
-219 225 0
-219 220 -224 0
220 -367 -368 221 0
220 -367 368 208 0
-220 367 0
-220 -368 -221 0
-220 368 -208 0
-221 -369 223 0
-221 369 222 0
221 369 -222 0
221 -369 -223 0
222 370 -81 0
222 -370 -95 0
-222 -370 95 0
-222 370 81 0
223 -370 -91 0
223 370 -94 0
-223 370 94 0
-223 -370 91 0
-224 367 194 0
224 -367 0
224 -194 0
-225 -367 226 0
-225 367 198 0
-225 367 368 0
225 -367 -226 0
225 367 -368 -198 0
-226 -368 227 0
-226 368 211 0
226 368 -211 0
226 -368 -227 0
227 -369 -228 0
227 369 -229 0
-227 369 229 0
-227 -369 228 0
228 -370 -119 0
228 370 -121 0
-228 370 121 0
-228 -370 119 0
229 370 -111 0
229 -370 -122 0
-229 -370 122 0
-229 370 111 0
230 -31 -137 -170 -231 0
-230 231 0
-230 31 0
-230 170 0
-230 137 0
231 -368 -369 -157 -232 0
-231 232 0
-231 368 0
-231 157 0
-231 369 0
232 -40 -138 0
-232 40 0
-232 138 0
233 -368 -369 -132 -158 0
-233 158 0
-233 368 0
-233 132 0
-233 369 0
-234 236 241 0
-234 132 236 0
-234 -132 -235 241 0
234 -132 -241 0
234 132 -236 0
234 235 -236 0
235 -368 -176 0
-235 368 0
-235 176 0
236 -368 -237 -238 -239 0
-236 239 0
-236 368 0
-236 238 0
-236 237 0
237 -356 -357 -358 0
-237 356 0
-237 357 0
-237 358 0
238 -354 -31 -33 0
-238 354 0
-238 31 0
-238 33 0
239 -359 -177 -232 -240 0
-239 240 0
-239 359 0
-239 232 0
-239 177 0
240 -355 -36 0
-240 355 0
-240 36 0
241 242 -244 0
-241 -242 0
-241 244 0
242 -368 -243 0
-242 368 0
-242 243 0
243 -369 -197 0
-243 369 0
-243 197 0
244 -368 -245 0
-244 368 0
-244 245 0
245 -308 -369 -370 -371 0
-245 371 0
-245 308 0
-245 370 0
-245 369 0
246 -168 -247 -251 0
246 -168 249 -251 0
-246 251 0
-246 168 0
-246 247 -249 0
247 -367 -368 248 0
247 -367 368 174 0
-247 367 0
-247 -368 -248 0
-247 368 -174 0
-248 369 18 0
-248 -369 12 0
248 -369 -12 0
248 369 -18 0
249 -355 -367 -250 0
249 -355 -235 -250 0
-249 250 0
-249 355 0
-249 367 235 0
250 -34 -40 -238 0
-250 34 0
-250 40 0
-250 238 0
251 -34 184 -253 0
251 -34 -252 -253 0
-251 34 0
-251 253 0
-251 -184 252 0
252 369 -55 0
252 -369 -65 0
-252 -369 65 0
-252 369 55 0
-253 368 175 0
-253 367 177 0
-253 367 368 0
253 -367 -175 0
253 -368 -177 0
253 -367 -368 0
254 -367 -255 0
254 -368 -215 -255 0
-254 255 0
-254 367 215 0
-254 367 368 0
255 -368 -256 -257 0
255 -256 -216 -257 0
-255 257 0
-255 256 0
-255 368 216 0
256 -351 -352 0
-256 351 0
-256 352 0
257 -169 184 -191 0
257 -169 -191 -258 0
-257 169 0
-257 191 0
-257 -184 258 0
258 -369 -148 0
258 369 -163 0
-258 369 163 0
-258 -369 148 0
-259 28 295 306 0
-259 260 295 306 0
259 -306 0
259 -295 0
259 -28 -260 0
-260 367 289 0
-260 -367 261 271 0
260 -367 -271 0
260 367 -289 0
260 -367 -261 0
-261 368 -88 0
-261 -368 262 0
-261 368 116 0
261 -368 -262 0
261 368 88 -116 0
-262 263 267 0
-262 -370 263 0
262 -263 0
262 370 -267 0
263 369 -370 -265 0
263 369 370 -264 0
-263 -369 0
-263 -370 265 0
-263 370 264 0
264 371 -152 0
264 -332 364 -371 0
-264 371 152 0
-264 332 -371 0
-264 -364 -371 0
265 371 -266 0
265 -334 366 -371 0
-265 371 266 0
-265 334 -371 0
-265 -366 -371 0
266 -333 365 0
-266 333 0
-266 -365 0
267 368 268 -270 0
267 268 269 -270 0
-267 270 0
-267 -268 0
-267 -368 -269 0
268 -335 -367 371 0
-268 335 0
-268 367 0
-268 -371 0
269 -336 -371 0
-269 336 0
-269 371 0
270 -335 -369 371 0
270 -336 -369 -371 0
-270 369 0
-270 336 -371 0
-270 335 371 0
271 274 -283 0
271 369 -272 -283 0
-271 283 0
-271 272 -274 0
-271 -369 -274 0
-272 -89 150 273 0
-272 117 150 273 0
272 -273 0
272 -150 0
272 89 -117 0
-273 -7 228 0
-273 62 -223 0
-273 62 228 0
-273 -7 -223 0
273 7 -62 0
273 223 -228 0
274 -370 275 -279 0
274 275 278 -279 0
-274 279 0
-274 -275 0
-274 370 -278 0
275 -370 -264 0
275 -369 -276 0
275 -369 -264 0
275 -370 -276 0
-275 264 276 0
-275 369 370 0
-276 371 277 0
-276 335 -371 0
-276 -367 -371 0
276 371 -277 0
276 -335 367 -371 0
277 -334 366 0
-277 334 0
-277 -366 0
-278 -90 151 0
-278 118 151 0
278 -151 0
278 90 -118 0
279 -368 265 280 0
279 -368 369 280 0
-279 -280 0
-279 368 0
-279 -369 -265 0
-280 370 281 0
-280 267 281 0
280 -281 0
280 -370 -267 0
281 371 -282 0
281 -333 365 -371 0
-281 371 282 0
-281 333 -371 0
-281 -365 -371 0
282 -332 364 0
-282 332 0
-282 -364 0
-283 61 258 284 0
-283 -6 258 284 0
283 -284 0
283 -258 0
283 6 -61 0
-284 -285 287 288 0
-284 286 287 288 0
284 -288 0
284 -287 0
284 285 -286 0
285 369 -209 0
285 -369 -222 0
-285 -369 222 0
-285 369 209 0
286 369 -212 0
286 -369 -229 0
-286 -369 229 0
-286 369 212 0
-287 -185 252 0
-287 189 -248 0
-287 189 252 0
-287 -185 -248 0
287 185 -189 0
287 248 -252 0
-288 368 147 227 0
-288 368 147 -221 0
288 -368 0
288 -147 0
288 221 -227 0
-289 214 290 293 0
-289 214 290 -291 0
289 -214 0
289 -290 0
289 291 -293 0
-290 172 179 202 0
290 -172 0
290 -179 0
290 -202 0
291 368 -243 0
291 -368 -292 0
-291 -368 292 0
-291 368 243 0
292 369 -196 0
292 -369 -210 0
-292 -369 210 0
-292 369 196 0
293 368 -245 0
293 -368 -294 0
-293 -368 294 0
-293 368 245 0
294 369 -199 0
294 -369 -213 0
-294 -369 213 0
-294 369 199 0
295 297 -300 0
295 -367 296 -300 0
-295 300 0
-295 -296 -297 0
-295 367 -297 0
296 -368 -285 0
296 368 -292 0
-296 368 292 0
-296 -368 285 0
297 -367 -133 -298 0
297 -133 -242 -298 0
-297 298 0
-297 133 0
-297 367 242 0
298 -366 -33 -136 -299 0
-298 299 0
-298 366 0
-298 136 0
-298 33 0
299 -37 -41 0
-299 37 0
-299 41 0
300 -368 -301 -303 0
300 -294 -301 -303 0
-300 303 0
-300 301 0
-300 368 294 0
301 -354 -367 -302 0
301 -354 -244 -302 0
-301 302 0
-301 354 0
-301 367 244 0
302 -344 -345 -366 -33 0
-302 33 0
-302 344 0
-302 366 0
-302 345 0
303 -355 -36 -304 -305 0
-303 305 0
-303 355 0
-303 304 0
-303 36 0
304 -346 -347 -348 0
-304 346 0
-304 347 0
-304 348 0
305 -39 184 -299 0
305 -39 -286 -299 0
-305 299 0
-305 39 0
-305 -184 286 0
306 -132 -293 307 0
-306 132 0
-306 293 0
-306 -307 0
307 -137 -138 -168 -291 0
-307 291 0
-307 137 0
-307 168 0
-307 138 0
-372 0
2 0

